data;
set WEIGHTS := x0 x1 x2 x3 x4 x5 x6 x7 x8 x9 x10 x11 x12 x13 x14 x15 x16 x17 x18 x19 x20 x21 x22 x23 x24 x25 x26 x27 x28 x29;
param:  cost :=
  x0  14
  x1  896
  x2  928
  x3  617
  x4  834
  x5  821
  x6  629
  x7  870
  x8  900
  x9  786
  x10  77
  x11  35
  x12  988
  x13  362
  x14  134
  x15  213
  x16  538
  x17  127
  x18  196
  x19  771
  x20  318
  x21  630
  x22  911
  x23  118
  x24  607
  x25  958
  x26  707
  x27  918
  x28  248
  x29  338;
param cap := 7501;